DIMACS2
80 453 10 366 425 379 52 148 584 202 371 309 601 270 633 172 427 56 585 429 178 218 558 245 18 397 563 409 288 165 537 197 521 246 454 388 57 510 456 377 439 140 277 598 436 285 100 113 9 620 223 479 533 55 608 173 474 627 14 519 32 338 259 350 91 621 271 304 101 244 175 352 257 54 65 92 592 19 386 81 42
p edge 640 2612
e 0 144 1.0
e 0 348 1.0
e 0 542 1.0
e 0 274 2.0
e 1 179 1.0
e 1 110 1.0
e 1 167 1.0
e 1 620 41.0
e 2 278 1.0
e 2 58 1.0
e 2 271 8.0
e 2 264 1.0
e 3 37 2.0
e 3 60 1.0
e 3 140 13.0
e 3 541 1.0
e 4 625 1.0
e 4 394 1.0
e 4 161 1.0
e 4 6 1.0
e 5 437 2.0
e 5 323 1.0
e 5 245 3.0
e 5 162 1.0
e 6 310 2.0
e 6 245 1.0
e 6 125 1.0
e 6 332 1.0
e 7 313 1.0
e 7 635 2.0
e 7 47 1.0
e 7 115 1.0
e 8 65 42.0
e 8 271 4.0
e 8 245 32.0
e 8 227 1.0
e 9 332 31.0
e 9 302 3.0
e 9 231 18.0
e 9 4 24.0
e 9 409 35.0
e 9 366 48.0
e 9 584 44.0
e 10 402 42.0
e 10 165 9.0
e 10 17 37.0
e 10 203 1.0
e 11 386 45.0
e 11 379 37.0
e 11 516 1.0
e 11 341 2.0
e 12 100 28.0
e 12 34 1.0
e 12 445 1.0
e 12 344 1.0
e 13 473 1.0
e 13 394 1.0
e 13 37 1.0
e 13 574 1.0
e 14 278 11.0
e 14 20 31.0
e 14 583 15.0
e 14 36 39.0
e 14 338 5.0
e 14 304 28.0
e 15 437 1.0
e 15 377 2.0
e 15 218 27.0
e 15 302 1.0
e 16 97 1.0
e 16 597 1.0
e 16 151 1.0
e 16 242 1.0
e 17 173 26.0
e 17 222 1.0
e 17 416 1.0
e 17 168 1.0
e 18 10 48.0
e 18 521 35.0
e 18 286 24.0
e 18 0 31.0
e 18 386 37.0
e 18 172 22.0
e 18 101 30.0
e 19 392 37.0
e 19 129 20.0
e 19 49 5.0
e 19 140 10.0
e 19 304 36.0
e 19 81 39.0
e 19 91 39.0
e 20 210 1.0
e 20 214 1.0
e 20 240 2.0
e 20 103 1.0
e 21 193 1.0
e 21 295 1.0
e 21 18 27.0
e 21 616 1.0
e 22 113 24.0
e 22 59 2.0
e 22 39 1.0
e 22 501 1.0
e 23 634 1.0
e 23 99 1.0
e 23 13 1.0
e 23 409 37.0
e 24 562 1.0
e 24 271 24.0
e 24 188 2.0
e 24 102 1.0
e 25 300 1.0
e 25 164 1.0
e 25 328 1.0
e 25 485 2.0
e 26 559 1.0
e 26 8 1.0
e 26 574 1.0
e 26 12 2.0
e 27 330 2.0
e 27 300 2.0
e 27 278 2.0
e 27 304 1.0
e 28 191 1.0
e 28 204 1.0
e 28 252 1.0
e 28 442 1.0
e 29 600 1.0
e 29 556 2.0
e 29 554 2.0
e 29 54 46.0
e 30 36 1.0
e 30 128 1.0
e 30 200 1.0
e 30 577 1.0
e 31 598 4.0
e 31 15 1.0
e 31 545 1.0
e 31 170 1.0
e 32 536 42.0
e 32 442 21.0
e 32 634 46.0
e 32 405 1.0
e 32 244 10.0
e 33 201 1.0
e 33 424 2.0
e 33 628 1.0
e 33 45 1.0
e 34 255 1.0
e 34 69 1.0
e 34 273 1.0
e 34 393 1.0
e 35 536 1.0
e 35 423 1.0
e 35 260 1.0
e 35 89 1.0
e 36 318 1.0
e 36 122 1.0
e 36 154 1.0
e 36 165 45.0
e 37 365 1.0
e 37 289 1.0
e 37 305 1.0
e 37 441 1.0
e 38 30 1.0
e 38 102 1.0
e 38 385 1.0
e 38 53 1.0
e 39 260 1.0
e 39 464 1.0
e 39 462 1.0
e 39 284 1.0
e 40 83 1.0
e 40 621 35.0
e 40 114 2.0
e 40 404 2.0
e 41 400 1.0
e 41 353 1.0
e 41 138 1.0
e 41 14 18.0
e 42 638 22.0
e 42 534 9.0
e 42 63 46.0
e 42 211 31.0
e 42 598 40.0
e 42 519 44.0
e 43 47 2.0
e 43 384 2.0
e 43 410 1.0
e 43 431 1.0
e 44 167 1.0
e 44 109 2.0
e 44 458 1.0
e 44 355 1.0
e 45 191 1.0
e 45 278 1.0
e 45 311 1.0
e 45 58 1.0
e 46 597 1.0
e 46 517 1.0
e 46 594 1.0
e 46 86 1.0
e 47 86 2.0
e 47 96 1.0
e 47 448 2.0
e 47 69 1.0
e 48 594 1.0
e 48 375 1.0
e 48 299 1.0
e 48 90 1.0
e 49 218 24.0
e 49 337 1.0
e 49 479 10.0
e 49 162 1.0
e 50 197 4.0
e 50 106 1.0
e 50 580 1.0
e 50 589 1.0
e 51 408 1.0
e 51 417 1.0
e 51 138 1.0
e 51 401 2.0
e 52 438 37.0
e 52 382 25.0
e 52 143 2.0
e 52 201 34.0
e 52 32 29.0
e 53 224 1.0
e 53 528 1.0
e 53 354 1.0
e 53 388 36.0
e 54 396 40.0
e 54 577 48.0
e 54 104 46.0
e 54 410 3.0
e 55 126 29.0
e 55 67 3.0
e 55 413 3.0
e 55 625 42.0
e 56 496 8.0
e 56 248 3.0
e 56 626 20.0
e 56 206 39.0
e 57 556 38.0
e 57 73 30.0
e 57 321 4.0
e 57 341 46.0
e 58 85 1.0
e 58 240 3.0
e 58 358 2.0
e 58 60 1.0
e 59 570 1.0
e 59 323 2.0
e 59 294 1.0
e 59 581 1.0
e 60 528 2.0
e 60 244 26.0
e 60 288 17.0
e 60 156 1.0
e 61 579 1.0
e 61 219 1.0
e 61 289 1.0
e 61 85 1.0
e 62 511 1.0
e 62 176 1.0
e 62 375 1.0
e 62 478 1.0
e 63 397 18.0
e 63 631 1.0
e 63 409 40.0
e 63 599 1.0
e 64 284 1.0
e 64 84 2.0
e 64 283 1.0
e 64 567 1.0
e 65 191 17.0
e 65 425 36.0
e 65 631 37.0
e 65 606 17.0
e 66 57 7.0
e 66 67 1.0
e 66 632 1.0
e 66 250 1.0
e 67 239 1.0
e 67 431 2.0
e 67 586 1.0
e 67 94 1.0
e 68 129 3.0
e 68 54 25.0
e 68 168 2.0
e 68 397 35.0
e 69 580 1.0
e 69 426 2.0
e 69 208 1.0
e 69 197 15.0
e 70 218 41.0
e 70 377 28.0
e 70 109 1.0
e 70 224 1.0
e 71 391 1.0
e 71 13 1.0
e 71 164 1.0
e 71 118 1.0
e 72 464 2.0
e 72 412 2.0
e 72 256 1.0
e 72 344 1.0
e 73 17 1.0
e 73 568 1.0
e 73 544 1.0
e 73 165 37.0
e 74 400 1.0
e 74 182 1.0
e 74 203 2.0
e 74 130 3.0
e 75 525 1.0
e 75 233 2.0
e 75 5 2.0
e 75 560 1.0
e 76 123 1.0
e 76 152 1.0
e 76 446 1.0
e 76 227 1.0
e 77 374 1.0
e 77 286 1.0
e 77 191 1.0
e 77 177 1.0
e 78 473 1.0
e 78 607 1.0
e 78 277 45.0
e 78 272 1.0
e 79 453 35.0
e 79 545 1.0
e 79 611 1.0
e 79 500 1.0
e 80 428 1.0
e 80 411 1.0
e 80 35 1.0
e 80 196 1.0
e 81 617 47.0
e 81 355 48.0
e 81 487 1.0
e 81 458 9.0
e 81 608 35.0
e 81 621 36.0
e 81 42 19.0
e 82 371 9.0
e 82 601 1.0
e 82 617 1.0
e 82 31 1.0
e 83 248 1.0
e 83 583 2.0
e 83 512 1.0
e 83 331 1.0
e 84 484 2.0
e 84 108 1.0
e 84 485 1.0
e 84 171 2.0
e 85 536 1.0
e 85 44 1.0
e 85 363 1.0
e 85 127 1.0
e 86 267 2.0
e 86 56 18.0
e 86 199 1.0
e 86 127 1.0
e 87 558 49.0
e 87 465 1.0
e 87 206 2.0
e 87 561 3.0
e 88 77 1.0
e 88 406 1.0
e 88 501 2.0
e 88 623 1.0
e 89 108 2.0
e 89 159 1.0
e 89 396 1.0
e 89 390 1.0
e 90 632 1.0
e 90 167 1.0
e 90 505 1.0
e 90 366 40.0
e 91 337 5.0
e 91 381 21.0
e 91 34 46.0
e 91 25 27.0
e 92 210 48.0
e 92 482 8.0
e 92 545 30.0
e 92 541 40.0
e 92 474 30.0
e 92 352 43.0
e 92 304 6.0
e 93 574 2.0
e 93 297 1.0
e 93 609 1.0
e 93 218 43.0
e 94 70 1.0
e 94 446 1.0
e 94 490 2.0
e 94 477 1.0
e 95 227 2.0
e 95 575 1.0
e 95 625 1.0
e 95 458 3.0
e 96 487 1.0
e 96 562 2.0
e 96 17 1.0
e 96 166 1.0
e 97 479 1.0
e 97 196 1.0
e 97 436 42.0
e 97 358 1.0
e 98 631 2.0
e 98 83 2.0
e 98 240 1.0
e 98 55 39.0
e 99 405 1.0
e 99 557 2.0
e 99 153 1.0
e 99 174 1.0
e 100 288 23.0
e 100 435 3.0
e 100 399 21.0
e 100 601 25.0
e 101 447 38.0
e 101 343 27.0
e 101 516 15.0
e 101 36 14.0
e 101 309 11.0
e 102 51 1.0
e 102 351 1.0
e 102 358 2.0
e 103 39 2.0
e 103 15 2.0
e 103 48 2.0
e 104 364 1.0
e 104 200 1.0
e 104 161 2.0
e 104 491 2.0
e 105 500 1.0
e 105 52 38.0
e 105 206 1.0
e 105 344 1.0
e 106 77 1.0
e 106 508 2.0
e 106 309 34.0
e 106 160 2.0
e 107 313 1.0
e 107 632 1.0
e 107 444 1.0
e 107 579 1.0
e 108 294 1.0
e 108 411 1.0
e 108 456 27.0
e 108 36 2.0
e 109 167 2.0
e 109 210 1.0
e 109 348 1.0
e 109 327 2.0
e 110 4 1.0
e 110 486 1.0
e 110 534 1.0
e 110 355 1.0
e 111 85 1.0
e 111 599 1.0
e 111 472 1.0
e 111 68 1.0
e 112 223 11.0
e 112 606 2.0
e 112 381 1.0
e 112 17 1.0
e 113 506 13.0
e 113 65 29.0
e 113 157 7.0
e 113 594 34.0
e 114 475 1.0
e 114 161 1.0
e 114 235 1.0
e 114 571 1.0
e 115 303 1.0
e 115 560 1.0
e 115 563 7.0
e 115 366 20.0
e 116 489 1.0
e 116 310 1.0
e 116 207 1.0
e 116 107 1.0
e 117 35 1.0
e 117 72 1.0
e 117 131 1.0
e 117 635 2.0
e 118 80 2.0
e 118 279 3.0
e 118 376 1.0
e 118 214 1.0
e 119 470 1.0
e 119 1 2.0
e 119 237 1.0
e 119 608 35.0
e 120 350 25.0
e 120 612 1.0
e 120 459 1.0
e 120 628 1.0
e 121 48 1.0
e 121 186 1.0
e 121 316 1.0
e 121 478 1.0
e 122 157 1.0
e 122 415 1.0
e 122 261 1.0
e 122 606 2.0
e 123 462 2.0
e 123 268 2.0
e 123 135 1.0
e 123 291 1.0
e 124 96 1.0
e 124 257 25.0
e 124 200 1.0
e 124 94 1.0
e 125 145 2.0
e 125 598 16.0
e 125 517 1.0
e 125 253 1.0
e 126 22 1.0
e 126 577 1.0
e 126 200 2.0
e 127 39 1.0
e 127 341 2.0
e 127 497 1.0
e 127 543 2.0
e 128 359 1.0
e 128 55 10.0
e 128 479 40.0
e 128 94 1.0
e 129 213 1.0
e 129 589 1.0
e 129 583 1.0
e 129 378 1.0
e 130 337 1.0
e 130 350 9.0
e 130 293 1.0
e 130 432 1.0
e 131 576 1.0
e 131 180 1.0
e 131 449 2.0
e 131 181 1.0
e 132 634 1.0
e 132 150 1.0
e 132 223 31.0
e 132 72 2.0
e 133 75 1.0
e 133 409 6.0
e 133 200 2.0
e 133 463 1.0
e 134 213 1.0
e 134 276 1.0
e 134 477 2.0
e 134 154 1.0
e 135 347 1.0
e 135 420 1.0
e 135 543 1.0
e 135 98 1.0
e 136 587 1.0
e 136 200 1.0
e 136 208 1.0
e 136 238 1.0
e 137 634 1.0
e 137 305 1.0
e 137 437 1.0
e 137 316 1.0
e 138 550 1.0
e 138 210 1.0
e 138 46 1.0
e 138 10 44.0
e 139 134 1.0
e 139 265 1.0
e 139 574 2.0
e 139 81 13.0
e 140 223 4.0
e 140 536 7.0
e 140 480 16.0
e 140 631 23.0
e 141 481 2.0
e 141 592 2.0
e 141 32 21.0
e 141 313 1.0
e 142 500 1.0
e 142 455 1.0
e 142 620 45.0
e 142 566 1.0
e 143 544 2.0
e 143 440 1.0
e 143 55 49.0
e 143 30 1.0
e 144 405 1.0
e 144 367 1.0
e 144 459 1.0
e 144 343 1.0
e 145 433 1.0
e 145 180 2.0
e 145 390 1.0
e 145 42 14.0
e 146 271 29.0
e 146 209 2.0
e 146 204 2.0
e 146 131 1.0
e 147 201 1.0
e 147 344 1.0
e 147 312 1.0
e 147 379 15.0
e 148 512 4.0
e 148 427 39.0
e 148 620 46.0
e 148 248 13.0
e 148 172 3.0
e 149 326 1.0
e 149 383 1.0
e 149 337 1.0
e 149 619 1.0
e 150 369 2.0
e 150 66 1.0
e 150 634 1.0
e 150 521 49.0
e 151 69 1.0
e 151 130 1.0
e 151 607 1.0
e 151 345 2.0
e 152 392 1.0
e 152 548 1.0
e 152 109 2.0
e 152 557 2.0
e 153 159 1.0
e 153 3 1.0
e 153 385 1.0
e 153 522 1.0
e 154 522 1.0
e 154 165 36.0
e 154 119 1.0
e 154 346 3.0
e 155 213 2.0
e 155 284 1.0
e 155 395 1.0
e 155 334 1.0
e 156 395 1.0
e 156 288 16.0
e 156 198 1.0
e 156 108 1.0
e 157 298 1.0
e 157 463 1.0
e 157 336 1.0
e 157 235 1.0
e 158 553 1.0
e 158 377 22.0
e 158 121 1.0
e 158 306 1.0
e 159 104 1.0
e 159 146 1.0
e 159 402 1.0
e 159 68 1.0
e 160 506 1.0
e 160 418 1.0
e 160 498 1.0
e 160 491 1.0
e 161 266 2.0
e 161 62 1.0
e 161 325 1.0
e 161 593 1.0
e 162 595 1.0
e 162 413 1.0
e 162 628 2.0
e 162 447 1.0
e 163 209 1.0
e 163 631 1.0
e 163 569 2.0
e 163 605 1.0
e 164 147 2.0
e 164 500 1.0
e 164 188 1.0
e 164 457 2.0
e 165 213 35.0
e 165 423 15.0
e 165 90 27.0
e 165 543 15.0
e 166 239 1.0
e 166 578 2.0
e 166 433 1.0
e 166 171 1.0
e 167 327 1.0
e 167 524 1.0
e 167 504 1.0
e 167 186 1.0
e 168 561 2.0
e 168 596 1.0
e 168 194 2.0
e 168 325 1.0
e 169 219 1.0
e 169 336 2.0
e 169 350 25.0
e 169 29 2.0
e 170 257 48.0
e 170 76 1.0
e 170 140 18.0
e 170 297 1.0
e 171 194 1.0
e 171 32 4.0
e 171 592 6.0
e 171 353 1.0
e 172 301 12.0
e 172 246 1.0
e 172 88 5.0
e 172 566 16.0
e 173 59 43.0
e 173 198 17.0
e 173 542 38.0
e 173 379 38.0
e 174 448 2.0
e 174 223 14.0
e 174 413 1.0
e 174 542 1.0
e 175 4 38.0
e 175 215 26.0
e 175 274 13.0
e 175 78 29.0
e 175 427 47.0
e 175 9 13.0
e 175 244 1.0
e 176 456 47.0
e 176 104 1.0
e 176 582 2.0
e 176 124 1.0
e 177 613 1.0
e 177 453 36.0
e 177 338 10.0
e 177 521 37.0
e 178 165 14.0
e 178 88 1.0
e 178 207 49.0
e 178 16 44.0
e 178 197 20.0
e 178 558 23.0
e 178 338 43.0
e 178 388 42.0
e 179 165 8.0
e 179 306 2.0
e 179 119 2.0
e 179 252 2.0
e 180 163 2.0
e 180 92 18.0
e 180 187 1.0
e 180 8 1.0
e 181 45 1.0
e 181 148 49.0
e 181 503 1.0
e 181 377 49.0
e 182 280 1.0
e 182 45 1.0
e 182 545 1.0
e 182 221 1.0
e 183 210 1.0
e 183 254 1.0
e 183 293 1.0
e 183 579 1.0
e 184 51 1.0
e 184 563 40.0
e 184 205 1.0
e 184 199 1.0
e 185 552 1.0
e 185 223 17.0
e 185 73 1.0
e 185 377 26.0
e 186 0 1.0
e 186 381 2.0
e 186 620 30.0
e 186 166 1.0
e 187 202 45.0
e 187 450 1.0
e 187 218 42.0
e 187 633 39.0
e 188 469 1.0
e 188 153 1.0
e 188 235 1.0
e 188 150 2.0
e 189 638 1.0
e 189 625 2.0
e 189 324 2.0
e 189 300 2.0
e 190 255 2.0
e 190 219 1.0
e 190 350 33.0
e 190 240 1.0
e 191 175 23.0
e 191 147 1.0
e 191 236 1.0
e 191 443 1.0
e 192 263 1.0
e 192 4 1.0
e 192 135 1.0
e 192 32 27.0
e 193 381 1.0
e 193 172 28.0
e 193 4 1.0
e 193 581 2.0
e 194 354 1.0
e 194 173 43.0
e 194 460 1.0
e 194 316 1.0
e 195 207 1.0
e 195 126 1.0
e 195 416 1.0
e 195 223 44.0
e 196 216 1.0
e 196 547 2.0
e 196 494 1.0
e 196 142 1.0
e 197 282 9.0
e 197 404 11.0
e 197 309 20.0
e 197 326 48.0
e 197 338 6.0
e 198 534 1.0
e 198 96 1.0
e 198 307 1.0
e 198 603 1.0
e 199 551 1.0
e 199 397 45.0
e 199 344 2.0
e 199 158 1.0
e 200 109 2.0
e 200 505 1.0
e 200 234 1.0
e 200 514 1.0
e 201 156 1.0
e 201 312 2.0
e 201 293 1.0
e 201 568 2.0
e 202 638 46.0
e 202 627 45.0
e 202 480 46.0
e 202 74 11.0
e 203 520 1.0
e 203 112 1.0
e 203 304 45.0
e 203 206 3.0
e 204 377 26.0
e 204 148 45.0
e 204 334 1.0
e 204 211 1.0
e 205 164 1.0
e 205 361 2.0
e 205 425 28.0
e 205 617 2.0
e 206 37 3.0
e 206 497 2.0
e 206 365 1.0
e 206 2 3.0
e 207 352 26.0
e 207 0 2.0
e 207 15 1.0
e 207 542 1.0
e 208 626 1.0
e 208 152 1.0
e 208 618 2.0
e 208 551 2.0
e 209 534 1.0
e 209 319 1.0
e 209 98 1.0
e 209 541 1.0
e 210 13 1.0
e 210 190 2.0
e 210 202 11.0
e 210 182 1.0
e 211 583 2.0
e 211 215 2.0
e 211 561 1.0
e 211 222 1.0
e 212 85 1.0
e 212 627 48.0
e 212 11 1.0
e 212 140 27.0
e 213 71 1.0
e 213 442 1.0
e 213 555 1.0
e 213 31 2.0
e 214 324 1.0
e 214 425 39.0
e 214 223 12.0
e 214 384 1.0
e 215 311 3.0
e 215 516 1.0
e 215 275 3.0
e 215 380 2.0
e 216 340 1.0
e 216 171 1.0
e 216 377 46.0
e 216 371 13.0
e 217 335 2.0
e 217 554 2.0
e 217 400 1.0
e 217 114 1.0
e 218 282 18.0
e 218 337 6.0
e 218 422 38.0
e 218 370 44.0
e 219 449 2.0
e 219 155 2.0
e 219 131 1.0
e 219 286 1.0
e 220 513 1.0
e 220 111 1.0
e 220 277 14.0
e 220 546 2.0
e 221 601 10.0
e 221 298 1.0
e 221 438 1.0
e 221 495 1.0
e 222 72 1.0
e 222 279 1.0
e 222 457 2.0
e 222 121 1.0
e 223 478 2.0
e 223 124 38.0
e 223 103 15.0
e 223 425 13.0
e 224 293 1.0
e 224 96 1.0
e 224 34 1.0
e 224 333 1.0
e 225 528 1.0
e 225 515 1.0
e 225 0 1.0
e 225 43 1.0
e 226 5 1.0
e 226 490 2.0
e 226 158 2.0
e 226 153 1.0
e 227 598 40.0
e 227 150 1.0
e 227 384 1.0
e 227 4 1.0
e 228 602 1.0
e 228 60 2.0
e 228 610 1.0
e 228 215 1.0
e 229 567 1.0
e 229 4 1.0
e 229 524 1.0
e 229 226 1.0
e 230 443 1.0
e 230 265 1.0
e 230 202 8.0
e 230 7 1.0
e 231 47 2.0
e 231 6 2.0
e 231 158 1.0
e 231 496 1.0
e 232 420 2.0
e 232 375 2.0
e 232 134 1.0
e 232 214 2.0
e 233 361 1.0
e 233 294 1.0
e 233 72 1.0
e 233 573 1.0
e 234 475 1.0
e 234 572 1.0
e 234 449 1.0
e 234 274 1.0
e 235 33 1.0
e 235 529 1.0
e 235 604 2.0
e 235 534 1.0
e 236 354 1.0
e 236 439 43.0
e 236 391 1.0
e 236 55 25.0
e 237 559 1.0
e 237 183 1.0
e 237 312 1.0
e 237 120 1.0
e 238 353 1.0
e 238 411 1.0
e 238 141 1.0
e 238 34 1.0
e 239 125 1.0
e 239 154 1.0
e 239 66 1.0
e 239 234 1.0
e 240 161 1.0
e 240 10 25.0
e 240 132 2.0
e 240 491 2.0
e 241 371 27.0
e 241 153 1.0
e 241 71 1.0
e 241 394 1.0
e 242 467 1.0
e 242 87 1.0
e 242 373 1.0
e 242 354 1.0
e 243 290 1.0
e 243 418 1.0
e 243 406 1.0
e 243 88 1.0
e 244 261 21.0
e 244 518 40.0
e 244 132 32.0
e 244 573 4.0
e 245 230 1.0
e 245 252 12.0
e 245 171 23.0
e 245 72 30.0
e 245 352 49.0
e 246 515 17.0
e 246 413 31.0
e 246 460 27.0
e 246 250 24.0
e 246 52 32.0
e 246 558 48.0
e 246 244 45.0
e 246 519 30.0
e 247 537 17.0
e 247 350 28.0
e 247 424 2.0
e 247 75 2.0
e 248 27 1.0
e 248 554 2.0
e 248 616 1.0
e 248 343 1.0
e 249 112 2.0
e 249 588 2.0
e 249 589 2.0
e 249 232 2.0
e 250 210 1.0
e 250 512 1.0
e 250 364 1.0
e 250 427 41.0
e 251 113 11.0
e 251 250 1.0
e 251 553 1.0
e 251 224 1.0
e 252 227 1.0
e 252 86 1.0
e 252 348 2.0
e 252 265 3.0
e 253 543 1.0
e 253 264 1.0
e 253 344 3.0
e 253 569 1.0
e 254 453 8.0
e 254 42 18.0
e 254 174 1.0
e 254 457 3.0
e 255 91 19.0
e 255 504 1.0
e 255 22 1.0
e 255 495 2.0
e 256 581 1.0
e 256 490 1.0
e 256 91 49.0
e 257 393 1.0
e 257 332 14.0
e 257 16 23.0
e 257 570 38.0
e 258 532 2.0
e 258 563 14.0
e 258 325 1.0
e 258 49 1.0
e 259 251 19.0
e 259 613 18.0
e 259 189 36.0
e 259 114 34.0
e 259 379 21.0
e 259 172 8.0
e 259 584 27.0
e 259 10 29.0
e 260 553 1.0
e 260 357 1.0
e 260 24 1.0
e 261 295 1.0
e 261 492 1.0
e 261 616 2.0
e 261 333 1.0
e 262 451 1.0
e 262 463 1.0
e 262 278 1.0
e 262 507 1.0
e 263 380 1.0
e 263 153 1.0
e 263 71 1.0
e 263 283 1.0
e 264 610 1.0
e 264 100 38.0
e 264 638 1.0
e 264 433 1.0
e 265 37 2.0
e 265 172 46.0
e 265 171 1.0
e 265 538 2.0
e 266 520 2.0
e 266 376 2.0
e 266 192 2.0
e 266 197 16.0
e 267 623 1.0
e 267 344 1.0
e 267 596 1.0
e 267 51 1.0
e 268 191 1.0
e 268 278 1.0
e 268 338 2.0
e 268 604 2.0
e 269 236 1.0
e 269 628 2.0
e 269 498 1.0
e 270 285 28.0
e 270 489 7.0
e 270 286 22.0
e 270 161 24.0
e 270 584 46.0
e 270 427 21.0
e 271 232 4.0
e 271 273 24.0
e 271 221 2.0
e 271 231 6.0
e 272 423 1.0
e 272 77 1.0
e 272 218 36.0
e 273 346 1.0
e 273 167 2.0
e 273 414 2.0
e 273 46 1.0
e 274 442 1.0
e 274 317 1.0
e 274 342 2.0
e 274 572 1.0
e 275 485 2.0
e 275 470 1.0
e 275 579 1.0
e 275 46 1.0
e 276 393 2.0
e 276 427 43.0
e 276 494 1.0
e 276 205 1.0
e 277 118 13.0
e 277 210 17.0
e 277 75 47.0
e 277 138 29.0
e 277 608 39.0
e 278 462 1.0
e 278 292 1.0
e 278 180 2.0
e 278 585 11.0
e 279 173 8.0
e 279 153 1.0
e 279 112 2.0
e 279 177 1.0
e 280 637 1.0
e 280 635 1.0
e 280 392 1.0
e 280 97 1.0
e 281 350 3.0
e 281 56 11.0
e 281 27 2.0
e 281 387 1.0
e 282 398 1.0
e 282 452 1.0
e 282 210 1.0
e 282 469 1.0
e 283 210 1.0
e 283 507 2.0
e 283 509 2.0
e 283 36 1.0
e 284 409 10.0
e 284 53 1.0
e 284 612 1.0
e 284 458 1.0
e 285 130 24.0
e 285 366 14.0
e 285 247 40.0
e 285 78 9.0
e 285 429 39.0
e 285 592 45.0
e 285 178 22.0
e 285 245 38.0
e 286 538 1.0
e 286 508 1.0
e 286 142 1.0
e 286 267 1.0
e 287 565 1.0
e 287 366 43.0
e 287 497 1.0
e 287 623 1.0
e 288 408 15.0
e 288 407 18.0
e 288 499 43.0
e 288 535 9.0
e 288 197 43.0
e 289 374 1.0
e 289 395 2.0
e 289 376 2.0
e 289 1 1.0
e 290 621 44.0
e 290 40 1.0
e 290 296 1.0
e 290 162 1.0
e 291 236 1.0
e 291 378 2.0
e 291 363 2.0
e 291 149 2.0
e 292 551 1.0
e 292 215 2.0
e 292 211 1.0
e 292 327 2.0
e 293 452 1.0
e 293 354 1.0
e 293 301 1.0
e 293 308 1.0
e 294 198 1.0
e 294 29 2.0
e 294 439 43.0
e 294 480 1.0
e 295 591 1.0
e 295 414 2.0
e 295 550 2.0
e 295 35 2.0
e 296 201 1.0
e 296 323 2.0
e 296 423 1.0
e 296 49 1.0
e 297 415 1.0
e 297 75 1.0
e 297 241 2.0
e 297 73 1.0
e 298 480 2.0
e 298 472 1.0
e 298 32 5.0
e 298 328 3.0
e 299 294 1.0
e 299 172 4.0
e 299 142 2.0
e 299 468 1.0
e 300 627 18.0
e 300 573 1.0
e 300 323 2.0
e 300 72 1.0
e 301 561 1.0
e 301 166 1.0
e 301 201 1.0
e 301 347 1.0
e 302 96 1.0
e 302 385 1.0
e 302 432 1.0
e 302 371 45.0
e 303 299 2.0
e 303 251 1.0
e 303 476 1.0
e 303 213 1.0
e 304 527 11.0
e 304 442 49.0
e 304 50 14.0
e 304 508 39.0
e 305 67 1.0
e 305 575 2.0
e 305 238 3.0
e 305 56 34.0
e 306 572 1.0
e 306 57 38.0
e 306 449 2.0
e 306 253 1.0
e 307 103 1.0
e 307 578 2.0
e 307 13 1.0
e 307 203 1.0
e 308 630 1.0
e 308 359 1.0
e 308 49 1.0
e 308 575 1.0
e 309 26 40.0
e 309 192 15.0
e 309 15 7.0
e 309 119 12.0
e 309 453 16.0
e 309 54 14.0
e 310 318 2.0
e 310 551 1.0
e 310 235 1.0
e 310 108 1.0
e 311 294 2.0
e 311 136 1.0
e 311 544 1.0
e 311 230 1.0
e 312 439 25.0
e 312 288 17.0
e 312 262 1.0
e 312 455 1.0
e 313 587 1.0
e 313 536 1.0
e 313 283 1.0
e 313 580 1.0
e 314 619 1.0
e 314 204 1.0
e 314 35 1.0
e 314 574 1.0
e 315 307 1.0
e 315 361 1.0
e 315 115 1.0
e 315 588 2.0
e 316 489 2.0
e 316 590 3.0
e 316 413 1.0
e 316 603 1.0
e 317 243 1.0
e 317 260 1.0
e 317 487 1.0
e 317 470 2.0
e 318 44 1.0
e 318 404 1.0
e 318 411 1.0
e 318 626 1.0
e 319 149 1.0
e 319 531 2.0
e 319 146 2.0
e 319 185 1.0
e 320 397 19.0
e 320 590 3.0
e 320 107 1.0
e 320 20 1.0
e 321 415 2.0
e 321 136 1.0
e 321 588 1.0
e 321 434 2.0
e 322 26 2.0
e 322 369 1.0
e 322 130 1.0
e 322 346 1.0
e 323 488 2.0
e 323 571 2.0
e 323 466 1.0
e 323 595 1.0
e 324 141 1.0
e 324 97 1.0
e 324 360 1.0
e 324 28 2.0
e 325 175 29.0
e 325 521 39.0
e 325 584 10.0
e 325 224 1.0
e 326 417 1.0
e 326 259 40.0
e 326 335 2.0
e 326 160 1.0
e 327 446 1.0
e 327 433 2.0
e 327 165 3.0
e 327 536 1.0
e 328 419 2.0
e 328 511 1.0
e 328 352 31.0
e 328 210 2.0
e 329 224 1.0
e 329 447 1.0
e 329 78 1.0
e 329 312 1.0
e 330 548 1.0
e 330 204 1.0
e 330 149 1.0
e 330 29 1.0
e 331 550 1.0
e 331 412 1.0
e 331 627 44.0
e 331 474 24.0
e 332 23 1.0
e 332 3 2.0
e 332 61 1.0
e 332 57 18.0
e 333 75 2.0
e 333 613 1.0
e 333 26 1.0
e 333 636 1.0
e 334 390 3.0
e 334 575 1.0
e 334 266 2.0
e 334 619 1.0
e 335 247 1.0
e 335 508 3.0
e 335 66 2.0
e 335 201 1.0
e 336 316 1.0
e 336 191 1.0
e 336 190 1.0
e 336 207 2.0
e 337 421 2.0
e 337 166 1.0
e 337 448 1.0
e 337 258 1.0
e 338 109 3.0
e 338 158 12.0
e 338 420 31.0
e 338 526 44.0
e 339 431 1.0
e 339 289 1.0
e 339 26 1.0
e 339 311 1.0
e 340 74 2.0
e 340 287 1.0
e 340 13 1.0
e 340 299 1.0
e 341 487 2.0
e 341 120 1.0
e 341 616 1.0
e 341 625 1.0
e 342 616 1.0
e 342 100 45.0
e 342 163 2.0
e 343 24 1.0
e 343 439 44.0
e 343 582 1.0
e 343 468 1.0
e 344 427 43.0
e 344 146 1.0
e 344 243 1.0
e 344 274 1.0
e 345 332 2.0
e 345 580 1.0
e 345 239 1.0
e 345 318 1.0
e 346 237 1.0
e 346 50 2.0
e 346 135 2.0
e 346 194 1.0
e 347 545 1.0
e 347 174 2.0
e 347 124 1.0
e 347 376 1.0
e 348 142 1.0
e 348 231 1.0
e 348 155 1.0
e 349 374 1.0
e 349 413 1.0
e 349 233 2.0
e 349 238 1.0
e 350 502 7.0
e 350 315 41.0
e 350 549 6.0
e 350 628 30.0
e 351 382 1.0
e 351 451 1.0
e 351 115 2.0
e 351 541 2.0
e 352 36 14.0
e 352 429 3.0
e 352 84 33.0
e 352 478 25.0
e 352 521 16.0
e 353 609 1.0
e 353 316 1.0
e 353 212 1.0
e 353 547 1.0
e 354 183 1.0
e 354 195 2.0
e 354 464 1.0
e 354 237 1.0
e 355 202 19.0
e 355 225 1.0
e 355 578 1.0
e 355 604 1.0
e 356 370 1.0
e 356 181 1.0
e 356 627 17.0
e 356 405 1.0
e 357 383 1.0
e 357 302 1.0
e 357 415 1.0
e 357 85 1.0
e 358 205 2.0
e 358 187 2.0
e 358 62 1.0
e 358 397 29.0
e 359 519 35.0
e 359 113 17.0
e 359 186 1.0
e 359 57 9.0
e 360 467 1.0
e 360 422 1.0
e 360 631 1.0
e 360 8 1.0
e 361 424 1.0
e 361 573 1.0
e 361 577 1.0
e 361 258 1.0
e 362 62 1.0
e 362 130 1.0
e 362 40 1.0
e 362 480 1.0
e 363 637 1.0
e 363 88 1.0
e 363 316 1.0
e 363 177 1.0
e 364 134 1.0
e 364 12 2.0
e 364 265 1.0
e 364 36 1.0
e 365 469 1.0
e 365 300 1.0
e 365 251 1.0
e 365 167 1.0
e 366 594 48.0
e 366 510 19.0
e 366 401 33.0
e 366 422 18.0
e 367 280 1.0
e 367 603 1.0
e 367 311 1.0
e 367 458 1.0
e 368 307 1.0
e 368 165 7.0
e 368 535 1.0
e 368 425 11.0
e 369 447 2.0
e 369 93 1.0
e 369 270 46.0
e 369 539 1.0
e 370 115 3.0
e 370 254 2.0
e 370 331 1.0
e 370 154 1.0
e 371 289 18.0
e 371 454 17.0
e 371 443 7.0
e 371 404 12.0
e 372 221 1.0
e 372 35 1.0
e 372 316 1.0
e 372 419 1.0
e 373 150 2.0
e 373 52 2.0
e 373 468 2.0
e 373 214 1.0
e 374 439 40.0
e 374 556 1.0
e 374 324 1.0
e 374 403 1.0
e 375 279 2.0
e 375 587 1.0
e 375 311 2.0
e 375 135 1.0
e 376 439 21.0
e 376 604 1.0
e 376 65 33.0
e 376 86 2.0
e 377 515 29.0
e 377 587 5.0
e 377 207 36.0
e 377 490 9.0
e 378 272 1.0
e 378 290 1.0
e 378 483 1.0
e 378 284 1.0
e 379 552 16.0
e 379 430 43.0
e 379 60 41.0
e 379 36 33.0
e 379 14 10.0
e 380 17 1.0
e 380 533 31.0
e 380 69 2.0
e 380 161 2.0
e 381 415 1.0
e 381 146 1.0
e 381 39 2.0
e 381 205 1.0
e 382 602 1.0
e 382 543 1.0
e 382 150 3.0
e 382 281 3.0
e 383 364 1.0
e 383 193 3.0
e 383 39 1.0
e 383 483 1.0
e 384 15 1.0
e 384 193 1.0
e 384 563 23.0
e 384 382 1.0
e 385 368 1.0
e 385 597 1.0
e 385 437 3.0
e 385 603 1.0
e 386 456 25.0
e 386 130 29.0
e 386 4 1.0
e 386 204 10.0
e 386 175 20.0
e 387 35 1.0
e 387 464 1.0
e 387 87 1.0
e 387 202 8.0
e 388 272 45.0
e 388 448 46.0
e 388 213 11.0
e 388 475 48.0
e 389 425 33.0
e 389 353 2.0
e 389 580 1.0
e 389 516 1.0
e 390 586 2.0
e 390 472 1.0
e 390 230 1.0
e 390 474 14.0
e 391 321 1.0
e 391 17 1.0
e 391 263 1.0
e 391 257 16.0
e 392 582 1.0
e 392 377 5.0
e 392 324 2.0
e 392 312 1.0
e 393 209 2.0
e 393 460 2.0
e 393 143 2.0
e 393 398 1.0
e 394 314 1.0
e 394 513 1.0
e 394 269 1.0
e 394 166 1.0
e 395 167 1.0
e 395 71 1.0
e 395 368 1.0
e 395 377 2.0
e 396 113 9.0
e 396 211 1.0
e 396 58 1.0
e 396 378 1.0
e 397 11 30.0
e 397 540 9.0
e 397 375 30.0
e 397 66 7.0
e 398 173 9.0
e 398 247 1.0
e 398 513 1.0
e 398 429 25.0
e 399 400 2.0
e 399 486 1.0
e 399 255 2.0
e 399 356 1.0
e 400 183 1.0
e 400 548 1.0
e 400 329 1.0
e 400 187 1.0
e 401 298 1.0
e 401 423 1.0
e 401 242 1.0
e 401 536 1.0
e 402 306 1.0
e 402 283 2.0
e 402 406 2.0
e 402 322 3.0
e 403 63 1.0
e 403 235 2.0
e 403 100 16.0
e 403 465 1.0
e 404 43 1.0
e 404 1 1.0
e 404 473 1.0
e 404 609 1.0
e 405 262 1.0
e 405 55 18.0
e 405 602 1.0
e 405 564 1.0
e 406 164 1.0
e 406 39 1.0
e 406 632 1.0
e 407 341 2.0
e 407 514 1.0
e 407 636 1.0
e 407 530 1.0
e 408 542 2.0
e 408 38 2.0
e 408 153 1.0
e 408 526 1.0
e 409 290 48.0
e 409 270 5.0
e 409 323 29.0
e 409 115 39.0
e 410 404 1.0
e 410 356 1.0
e 410 635 2.0
e 410 509 1.0
e 411 401 1.0
e 411 552 1.0
e 411 312 1.0
e 411 124 1.0
e 412 37 1.0
e 412 31 2.0
e 412 559 1.0
e 412 468 1.0
e 413 96 1.0
e 413 396 1.0
e 413 518 1.0
e 413 630 1.0
e 414 9 28.0
e 414 600 1.0
e 414 73 1.0
e 414 491 1.0
e 415 568 1.0
e 415 467 1.0
e 415 429 9.0
e 415 620 39.0
e 416 144 1.0
e 416 560 1.0
e 416 10 35.0
e 416 615 2.0
e 417 594 1.0
e 417 494 1.0
e 417 336 1.0
e 417 171 1.0
e 418 68 1.0
e 418 302 1.0
e 418 24 2.0
e 419 332 1.0
e 419 491 2.0
e 419 637 1.0
e 419 138 1.0
e 420 244 14.0
e 420 636 1.0
e 420 558 40.0
e 420 158 1.0
e 421 628 1.0
e 421 537 23.0
e 421 314 2.0
e 421 331 1.0
e 422 258 2.0
e 422 522 1.0
e 422 416 1.0
e 422 596 1.0
e 423 426 2.0
e 423 226 2.0
e 423 270 31.0
e 423 209 1.0
e 424 407 1.0
e 424 65 11.0
e 424 548 1.0
e 424 574 2.0
e 425 373 39.0
e 425 507 7.0
e 425 186 11.0
e 425 76 41.0
e 426 496 1.0
e 426 586 1.0
e 426 97 1.0
e 426 34 1.0
e 427 287 31.0
e 427 504 23.0
e 427 442 36.0
e 427 485 41.0
e 428 168 2.0
e 428 125 2.0
e 428 414 2.0
e 429 454 44.0
e 429 596 14.0
e 429 73 16.0
e 429 274 10.0
e 430 103 2.0
e 430 351 1.0
e 430 487 1.0
e 430 228 2.0
e 431 366 35.0
e 431 110 1.0
e 431 520 3.0
e 431 386 28.0
e 432 28 1.0
e 432 22 1.0
e 432 170 1.0
e 432 485 1.0
e 433 219 1.0
e 433 65 42.0
e 433 425 49.0
e 433 203 1.0
e 434 431 3.0
e 434 404 1.0
e 434 497 1.0
e 434 291 1.0
e 435 132 1.0
e 435 356 1.0
e 435 178 48.0
e 435 267 1.0
e 436 295 45.0
e 436 560 13.0
e 436 597 43.0
e 436 14 21.0
e 436 309 10.0
e 436 608 9.0
e 436 585 20.0
e 437 331 1.0
e 437 510 21.0
e 437 500 1.0
e 437 119 1.0
e 438 525 1.0
e 438 536 1.0
e 438 613 1.0
e 438 345 2.0
e 439 257 30.0
e 439 161 31.0
e 439 346 4.0
e 439 558 41.0
e 440 119 2.0
e 440 528 1.0
e 440 305 1.0
e 440 56 16.0
e 441 484 1.0
e 441 148 42.0
e 441 94 1.0
e 441 538 1.0
e 442 77 1.0
e 442 476 1.0
e 442 170 1.0
e 442 613 1.0
e 443 348 1.0
e 443 568 1.0
e 443 186 1.0
e 443 480 1.0
e 444 332 1.0
e 444 312 1.0
e 444 544 2.0
e 444 19 45.0
e 445 205 1.0
e 445 54 18.0
e 445 131 3.0
e 445 631 3.0
e 446 143 1.0
e 446 213 2.0
e 446 438 2.0
e 446 85 1.0
e 447 301 1.0
e 447 512 1.0
e 447 66 1.0
e 447 437 1.0
e 448 283 1.0
e 448 392 1.0
e 448 251 1.0
e 448 453 15.0
e 449 515 1.0
e 449 559 1.0
e 449 510 21.0
e 449 616 1.0
e 450 118 1.0
e 450 403 1.0
e 450 532 2.0
e 450 563 19.0
e 451 519 30.0
e 451 184 2.0
e 451 111 1.0
e 451 74 1.0
e 452 163 1.0
e 452 271 34.0
e 452 627 36.0
e 452 75 1.0
e 453 491 27.0
e 453 41 39.0
e 453 114 18.0
e 453 637 14.0
e 454 587 49.0
e 454 388 2.0
e 454 374 1.0
e 454 383 8.0
e 454 521 1.0
e 454 202 49.0
e 454 246 42.0
e 455 342 2.0
e 455 173 36.0
e 455 150 2.0
e 455 242 2.0
e 456 614 27.0
e 456 284 10.0
e 456 302 27.0
e 456 338 9.0
e 456 257 43.0
e 457 304 44.0
e 457 263 1.0
e 457 634 1.0
e 457 355 1.0
e 458 18 4.0
e 458 327 1.0
e 458 110 1.0
e 458 179 1.0
e 459 421 3.0
e 459 1 1.0
e 459 21 1.0
e 459 273 3.0
e 460 226 1.0
e 460 56 20.0
e 460 633 35.0
e 460 496 1.0
e 461 116 1.0
e 461 218 13.0
e 461 146 2.0
e 461 387 1.0
e 462 595 1.0
e 462 228 1.0
e 462 598 48.0
e 462 59 1.0
e 463 29 2.0
e 463 535 1.0
e 463 357 1.0
e 463 322 1.0
e 464 416 1.0
e 464 218 29.0
e 464 169 1.0
e 464 406 1.0
e 465 348 1.0
e 465 52 1.0
e 465 524 2.0
e 465 135 1.0
e 466 293 1.0
e 466 473 1.0
e 466 295 2.0
e 466 519 42.0
e 467 538 1.0
e 467 226 1.0
e 467 348 1.0
e 467 69 1.0
e 468 144 1.0
e 468 354 1.0
e 468 217 1.0
e 468 140 30.0
e 469 13 1.0
e 469 59 1.0
e 469 422 1.0
e 469 505 1.0
e 470 97 1.0
e 470 293 1.0
e 470 395 2.0
e 470 635 1.0
e 471 103 2.0
e 471 492 1.0
e 471 181 1.0
e 471 258 2.0
e 472 267 1.0
e 472 150 1.0
e 472 604 1.0
e 472 386 49.0
e 473 464 1.0
e 473 69 1.0
e 473 437 1.0
e 473 632 1.0
e 474 622 39.0
e 474 226 39.0
e 474 275 46.0
e 474 173 4.0
e 474 259 47.0
e 474 386 3.0
e 475 283 1.0
e 475 623 1.0
e 475 547 2.0
e 475 20 1.0
e 476 534 2.0
e 476 355 1.0
e 476 21 1.0
e 476 329 1.0
e 477 564 2.0
e 477 550 1.0
e 477 40 1.0
e 477 367 1.0
e 478 528 1.0
e 478 86 2.0
e 478 238 1.0
e 478 535 1.0
e 479 242 49.0
e 479 551 29.0
e 479 345 5.0
e 479 368 11.0
e 480 621 26.0
e 480 599 1.0
e 480 577 1.0
e 480 62 1.0
e 481 570 1.0
e 481 622 2.0
e 481 220 2.0
e 481 89 2.0
e 482 564 1.0
e 482 223 14.0
e 482 271 28.0
e 482 59 1.0
e 483 529 1.0
e 483 237 1.0
e 483 382 2.0
e 483 153 1.0
e 484 538 1.0
e 484 53 1.0
e 484 169 1.0
e 484 206 2.0
e 485 480 1.0
e 485 327 1.0
e 485 428 2.0
e 485 516 1.0
e 486 425 37.0
e 486 515 1.0
e 486 563 13.0
e 486 108 1.0
e 487 576 1.0
e 487 63 1.0
e 487 533 38.0
e 487 343 1.0
e 488 401 1.0
e 488 192 3.0
e 488 158 2.0
e 488 510 13.0
e 489 262 2.0
e 489 256 1.0
e 489 69 1.0
e 489 249 1.0
e 490 403 1.0
e 490 215 2.0
e 490 467 1.0
e 490 423 2.0
e 491 46 1.0
e 491 475 2.0
e 491 430 1.0
e 491 93 1.0
e 492 361 1.0
e 492 292 1.0
e 492 170 1.0
e 492 593 1.0
e 493 315 3.0
e 493 120 1.0
e 493 297 1.0
e 493 395 2.0
e 494 565 1.0
e 494 493 1.0
e 494 349 1.0
e 494 58 1.0
e 495 395 1.0
e 495 337 1.0
e 495 446 2.0
e 495 6 1.0
e 496 613 2.0
e 496 447 1.0
e 496 221 1.0
e 496 40 2.0
e 497 282 1.0
e 497 231 1.0
e 497 313 1.0
e 497 49 1.0
e 498 404 1.0
e 498 290 1.0
e 498 198 2.0
e 498 557 1.0
e 499 86 1.0
e 499 1 1.0
e 499 7 1.0
e 499 57 5.0
e 500 346 1.0
e 500 99 2.0
e 500 314 2.0
e 500 14 7.0
e 501 384 2.0
e 501 453 42.0
e 501 98 1.0
e 501 183 1.0
e 502 203 1.0
e 502 277 8.0
e 502 65 47.0
e 502 207 1.0
e 503 74 3.0
e 503 417 1.0
e 503 384 1.0
e 503 486 1.0
e 504 391 2.0
e 504 269 1.0
e 504 101 32.0
e 504 388 1.0
e 505 222 2.0
e 505 502 1.0
e 505 91 40.0
e 505 360 1.0
e 506 193 2.0
e 506 530 1.0
e 506 48 1.0
e 506 396 1.0
e 507 407 2.0
e 507 199 1.0
e 507 72 1.0
e 507 53 1.0
e 508 323 1.0
e 508 438 1.0
e 508 635 1.0
e 508 417 2.0
e 509 209 1.0
e 509 160 2.0
e 509 188 1.0
e 509 262 1.0
e 510 570 39.0
e 510 131 28.0
e 510 228 44.0
e 510 505 46.0
e 511 187 1.0
e 511 211 1.0
e 511 129 2.0
e 511 224 1.0
e 512 236 1.0
e 512 240 1.0
e 512 100 13.0
e 512 322 1.0
e 513 124 2.0
e 513 188 1.0
e 513 342 3.0
e 513 584 33.0
e 514 476 1.0
e 514 7 1.0
e 514 561 1.0
e 514 75 1.0
e 515 614 1.0
e 515 534 1.0
e 515 255 2.0
e 515 495 1.0
e 516 135 1.0
e 516 46 1.0
e 516 177 2.0
e 516 396 1.0
e 517 316 1.0
e 517 214 1.0
e 517 469 1.0
e 517 570 1.0
e 518 3 1.0
e 518 247 1.0
e 518 584 34.0
e 518 100 35.0
e 519 554 30.0
e 519 556 16.0
e 519 371 2.0
e 519 416 7.0
e 520 425 38.0
e 520 363 2.0
e 520 300 1.0
e 520 398 1.0
e 521 509 39.0
e 521 47 1.0
e 521 49 43.0
e 521 89 38.0
e 522 133 3.0
e 522 231 1.0
e 522 388 46.0
e 522 472 2.0
e 523 510 48.0
e 523 2 1.0
e 523 49 1.0
e 523 388 19.0
e 524 262 1.0
e 524 516 1.0
e 524 501 1.0
e 524 394 1.0
e 525 448 1.0
e 525 513 2.0
e 525 125 1.0
e 525 595 1.0
e 526 458 1.0
e 526 472 2.0
e 526 185 1.0
e 526 484 2.0
e 527 311 2.0
e 527 340 1.0
e 527 62 1.0
e 527 548 1.0
e 528 613 1.0
e 528 479 17.0
e 528 222 2.0
e 528 256 3.0
e 529 186 1.0
e 529 23 1.0
e 529 158 1.0
e 529 549 1.0
e 530 307 1.0
e 530 6 2.0
e 530 260 1.0
e 530 239 1.0
e 531 119 1.0
e 531 540 1.0
e 531 52 16.0
e 531 208 2.0
e 532 431 1.0
e 532 271 9.0
e 532 544 2.0
e 532 251 1.0
e 533 397 26.0
e 533 337 47.0
e 533 292 28.0
e 533 276 12.0
e 533 537 49.0
e 533 585 32.0
e 534 356 1.0
e 534 369 1.0
e 534 565 1.0
e 534 114 2.0
e 535 195 1.0
e 535 225 1.0
e 535 408 1.0
e 535 364 2.0
e 536 51 1.0
e 536 437 2.0
e 536 574 1.0
e 536 614 1.0
e 537 95 35.0
e 537 20 19.0
e 537 426 4.0
e 537 312 23.0
e 538 485 2.0
e 538 383 3.0
e 538 572 1.0
e 538 77 1.0
e 539 79 1.0
e 539 265 2.0
e 539 435 1.0
e 539 599 1.0
e 540 70 1.0
e 540 463 1.0
e 540 54 31.0
e 540 632 1.0
e 541 632 2.0
e 541 622 1.0
e 541 341 1.0
e 541 82 1.0
e 542 97 1.0
e 542 514 2.0
e 542 282 2.0
e 543 139 2.0
e 543 613 1.0
e 543 34 1.0
e 543 289 2.0
e 544 234 1.0
e 544 377 22.0
e 544 300 1.0
e 544 289 1.0
e 545 19 12.0
e 545 61 1.0
e 545 213 1.0
e 545 620 43.0
e 546 621 49.0
e 546 101 28.0
e 546 267 1.0
e 546 418 1.0
e 547 533 43.0
e 547 256 3.0
e 547 497 1.0
e 547 21 1.0
e 548 134 1.0
e 548 26 2.0
e 548 362 1.0
e 548 75 1.0
e 549 266 1.0
e 549 59 1.0
e 549 93 1.0
e 549 495 2.0
e 550 249 1.0
e 550 611 1.0
e 550 290 1.0
e 550 34 1.0
e 551 183 1.0
e 551 422 1.0
e 551 466 1.0
e 551 289 1.0
e 552 536 1.0
e 552 378 1.0
e 552 565 1.0
e 552 418 1.0
e 553 95 2.0
e 553 334 1.0
e 553 10 2.0
e 553 593 1.0
e 554 275 1.0
e 554 2 1.0
e 554 152 2.0
e 554 463 1.0
e 555 127 1.0
e 555 487 1.0
e 555 486 1.0
e 555 416 1.0
e 556 325 1.0
e 556 334 1.0
e 556 354 1.0
e 556 516 1.0
e 557 510 13.0
e 557 171 1.0
e 557 471 1.0
e 557 210 1.0
e 558 143 42.0
e 558 479 36.0
e 558 621 5.0
e 558 100 23.0
e 559 409 15.0
e 559 445 1.0
e 559 177 1.0
e 559 303 1.0
e 560 82 2.0
e 560 190 1.0
e 560 476 1.0
e 560 450 2.0
e 561 282 1.0
e 561 383 1.0
e 561 552 2.0
e 561 4 1.0
e 562 101 19.0
e 562 466 1.0
e 562 192 1.0
e 562 291 2.0
e 563 481 45.0
e 563 130 13.0
e 563 446 27.0
e 563 376 13.0
e 564 154 1.0
e 564 548 1.0
e 564 273 1.0
e 564 494 1.0
e 565 491 2.0
e 565 16 1.0
e 565 86 3.0
e 565 123 1.0
e 566 87 1.0
e 566 24 1.0
e 566 38 1.0
e 566 204 2.0
e 567 278 1.0
e 567 78 1.0
e 567 153 1.0
e 567 273 2.0
e 568 125 1.0
e 568 449 2.0
e 568 423 1.0
e 568 510 39.0
e 569 146 2.0
e 569 558 45.0
e 569 129 1.0
e 569 150 1.0
e 570 50 1.0
e 570 277 27.0
e 570 478 1.0
e 570 495 1.0
e 571 592 34.0
e 571 509 1.0
e 571 161 2.0
e 571 361 2.0
e 572 200 1.0
e 572 121 1.0
e 572 244 8.0
e 572 498 2.0
e 573 307 1.0
e 573 228 2.0
e 573 371 38.0
e 573 508 1.0
e 574 85 1.0
e 574 518 1.0
e 574 37 1.0
e 574 269 1.0
e 575 636 1.0
e 575 394 1.0
e 575 156 1.0
e 575 601 43.0
e 576 191 1.0
e 576 252 2.0
e 576 9 22.0
e 576 434 2.0
e 577 543 2.0
e 577 248 1.0
e 577 625 1.0
e 577 164 2.0
e 578 42 27.0
e 578 614 1.0
e 578 550 1.0
e 578 587 1.0
e 579 274 1.0
e 579 17 1.0
e 579 349 1.0
e 579 113 27.0
e 580 261 1.0
e 580 166 1.0
e 580 561 1.0
e 580 177 1.0
e 581 594 1.0
e 581 271 19.0
e 581 48 2.0
e 581 525 2.0
e 582 610 1.0
e 582 194 2.0
e 582 71 1.0
e 582 82 1.0
e 583 77 2.0
e 583 437 2.0
e 583 562 3.0
e 583 365 1.0
e 584 592 31.0
e 584 335 29.0
e 584 286 42.0
e 584 59 47.0
e 585 15 8.0
e 585 317 21.0
e 585 222 40.0
e 585 310 44.0
e 585 18 39.0
e 585 633 23.0
e 586 441 2.0
e 586 547 1.0
e 586 425 24.0
e 586 623 1.0
e 587 358 1.0
e 587 225 1.0
e 587 242 1.0
e 587 271 16.0
e 588 363 1.0
e 588 456 29.0
e 588 74 2.0
e 588 560 1.0
e 589 85 2.0
e 589 537 26.0
e 589 174 2.0
e 589 604 2.0
e 590 355 1.0
e 590 245 3.0
e 590 551 2.0
e 590 451 1.0
e 591 488 2.0
e 591 235 2.0
e 591 385 1.0
e 591 550 1.0
e 592 336 22.0
e 592 348 16.0
e 592 76 36.0
e 592 36 19.0
e 593 589 2.0
e 593 442 1.0
e 593 612 1.0
e 593 128 1.0
e 594 501 1.0
e 594 82 1.0
e 594 495 1.0
e 594 295 1.0
e 595 109 3.0
e 595 88 1.0
e 595 43 1.0
e 595 513 1.0
e 596 608 3.0
e 596 485 1.0
e 596 75 1.0
e 596 589 1.0
e 597 116 1.0
e 597 261 1.0
e 597 510 47.0
e 597 34 3.0
e 598 168 15.0
e 598 322 35.0
e 598 54 20.0
e 598 459 22.0
e 599 228 1.0
e 599 303 1.0
e 599 375 3.0
e 599 70 1.0
e 600 519 25.0
e 600 637 1.0
e 600 340 2.0
e 600 242 1.0
e 601 351 28.0
e 601 291 40.0
e 601 233 4.0
e 601 441 9.0
e 602 350 23.0
e 602 555 1.0
e 602 580 1.0
e 602 592 19.0
e 603 182 1.0
e 603 341 2.0
e 603 499 1.0
e 603 164 1.0
e 604 148 20.0
e 604 289 1.0
e 604 524 1.0
e 604 200 1.0
e 605 636 1.0
e 605 188 1.0
e 605 443 1.0
e 605 622 2.0
e 606 492 1.0
e 606 123 1.0
e 606 548 1.0
e 606 393 1.0
e 607 406 1.0
e 607 473 1.0
e 607 580 1.0
e 607 93 2.0
e 608 272 46.0
e 608 502 41.0
e 608 434 6.0
e 608 91 36.0
e 609 526 2.0
e 609 441 1.0
e 609 284 1.0
e 609 586 1.0
e 610 315 1.0
e 610 88 1.0
e 610 219 1.0
e 610 562 2.0
e 611 135 1.0
e 611 189 1.0
e 611 146 1.0
e 611 262 1.0
e 612 93 1.0
e 612 105 1.0
e 612 218 23.0
e 612 550 2.0
e 613 436 36.0
e 613 412 1.0
e 613 364 1.0
e 613 263 1.0
e 614 329 1.0
e 614 528 2.0
e 614 439 44.0
e 614 501 2.0
e 615 537 33.0
e 615 520 3.0
e 615 412 3.0
e 615 150 3.0
e 616 492 1.0
e 616 221 1.0
e 616 323 2.0
e 616 552 1.0
e 617 433 1.0
e 617 199 1.0
e 617 407 1.0
e 617 238 2.0
e 618 226 1.0
e 618 429 43.0
e 618 407 2.0
e 618 299 2.0
e 619 22 1.0
e 619 535 2.0
e 619 431 1.0
e 619 324 2.0
e 620 251 22.0
e 620 522 40.0
e 620 264 20.0
e 620 203 44.0
e 621 286 45.0
e 621 239 47.0
e 621 477 35.0
e 621 155 16.0
e 622 123 1.0
e 622 50 2.0
e 622 458 2.0
e 622 497 2.0
e 623 176 1.0
e 623 471 1.0
e 623 486 1.0
e 623 266 1.0
e 624 564 1.0
e 624 291 2.0
e 624 65 7.0
e 624 297 2.0
e 625 201 2.0
e 625 184 1.0
e 625 580 1.0
e 625 377 7.0
e 626 158 1.0
e 626 556 1.0
e 626 353 1.0
e 626 576 2.0
e 627 292 43.0
e 627 235 23.0
e 627 21 30.0
e 627 324 21.0
e 628 547 1.0
e 628 392 1.0
e 628 356 1.0
e 628 603 2.0
e 629 618 2.0
e 629 59 1.0
e 629 334 1.0
e 629 469 1.0
e 630 506 1.0
e 630 138 1.0
e 630 211 2.0
e 630 95 2.0
e 631 326 1.0
e 631 513 1.0
e 631 480 1.0
e 631 538 1.0
e 632 144 1.0
e 632 232 1.0
e 632 222 1.0
e 632 411 1.0
e 633 475 42.0
e 633 164 38.0
e 633 626 9.0
e 633 92 40.0
e 633 288 1.0
e 633 598 4.0
e 634 610 1.0
e 634 525 1.0
e 634 28 1.0
e 635 191 1.0
e 635 257 12.0
e 635 375 1.0
e 636 556 1.0
e 636 601 3.0
e 636 545 1.0
e 636 478 1.0
e 637 196 1.0
e 637 131 2.0
e 637 371 38.0
e 637 346 1.0
e 638 488 1.0
e 638 147 3.0
e 638 381 1.0
e 639 65 9.0
e 639 328 1.0
e 639 503 1.0
e 639 611 2.0
